(set-logic QF_LRA)
(declare-fun T1 () Real )
(declare-fun T2 () Real )
(declare-fun T3 () Real )
(declare-fun T4 () Real )
(declare-fun T5 () Real )
(declare-fun T6 () Real )
(declare-fun Z () Real )
(declare-fun k () Real )
(assert (let
(( $goal (>= Z k) ))
(let
((
$phi ( and 
(or ( <= ( + T1 12 ) T2 ) ( <= ( + T2 37 ) T1 ) )
(or ( <= ( + T1 23 )  ( + T2 37 ) ) ( <= ( + T2 136 )( + T1 12 ) ) )
(or ( <= ( + T1 57 )  ( + T2 136 ) ) ( <= ( + T2 137 )( + T1 23 ) ) )
(or ( <= ( + T1 146 )  ( + T2 137 ) ) ( <= ( + T2 174 )( + T1 57 ) ) )
(or ( <= ( + T1 12 ) T3 ) ( <= ( + T3 62 ) T1 ) )
(or ( <= ( + T1 23 )  ( + T3 62 ) ) ( <= ( + T3 68 )( + T1 12 ) ) )
(or ( <= ( + T1 57 )  ( + T3 68 ) ) ( <= ( + T3 104 )( + T1 23 ) ) )
(or ( <= ( + T1 146 )  ( + T3 104 ) ) ( <= ( + T3 164 )( + T1 57 ) ) )
(or ( <= ( + T1 12 ) T4 ) ( <= ( + T4 90 ) T1 ) )
(or ( <= ( + T1 23 )  ( + T4 90 ) ) ( <= ( + T4 140 )( + T1 12 ) ) )
(or ( <= ( + T1 57 )  ( + T4 140 ) ) ( <= ( + T4 223 )( + T1 23 ) ) )
(or ( <= ( + T1 146 )  ( + T4 223 ) ) ( <= ( + T4 295 )( + T1 57 ) ) )
(or ( <= ( + T1 12 ) T5 ) ( <= ( + T5 41 ) T1 ) )
(or ( <= ( + T1 23 )  ( + T5 41 ) ) ( <= ( + T5 125 )( + T1 12 ) ) )
(or ( <= ( + T1 57 )  ( + T5 125 ) ) ( <= ( + T5 189 )( + T1 23 ) ) )
(or ( <= ( + T1 146 )  ( + T5 189 ) ) ( <= ( + T5 261 )( + T1 57 ) ) )
(or ( <= ( + T1 12 ) T6 ) ( <= ( + T6 28 ) T1 ) )
(or ( <= ( + T1 23 )  ( + T6 28 ) ) ( <= ( + T6 119 )( + T1 12 ) ) )
(or ( <= ( + T1 57 )  ( + T6 119 ) ) ( <= ( + T6 218 )( + T1 23 ) ) )
(or ( <= ( + T1 146 )  ( + T6 218 ) ) ( <= ( + T6 282 )( + T1 57 ) ) )
(or ( <= ( + T2 37 ) T3 ) ( <= ( + T3 62 ) T2 ) )
(or ( <= ( + T2 136 )  ( + T3 62 ) ) ( <= ( + T3 68 )( + T2 37 ) ) )
(or ( <= ( + T2 137 )  ( + T3 68 ) ) ( <= ( + T3 104 )( + T2 136 ) ) )
(or ( <= ( + T2 174 )  ( + T3 104 ) ) ( <= ( + T3 164 )( + T2 137 ) ) )
(or ( <= ( + T2 37 ) T4 ) ( <= ( + T4 90 ) T2 ) )
(or ( <= ( + T2 136 )  ( + T4 90 ) ) ( <= ( + T4 140 )( + T2 37 ) ) )
(or ( <= ( + T2 137 )  ( + T4 140 ) ) ( <= ( + T4 223 )( + T2 136 ) ) )
(or ( <= ( + T2 174 )  ( + T4 223 ) ) ( <= ( + T4 295 )( + T2 137 ) ) )
(or ( <= ( + T2 37 ) T5 ) ( <= ( + T5 41 ) T2 ) )
(or ( <= ( + T2 136 )  ( + T5 41 ) ) ( <= ( + T5 125 )( + T2 37 ) ) )
(or ( <= ( + T2 137 )  ( + T5 125 ) ) ( <= ( + T5 189 )( + T2 136 ) ) )
(or ( <= ( + T2 174 )  ( + T5 189 ) ) ( <= ( + T5 261 )( + T2 137 ) ) )
(or ( <= ( + T2 37 ) T6 ) ( <= ( + T6 28 ) T2 ) )
(or ( <= ( + T2 136 )  ( + T6 28 ) ) ( <= ( + T6 119 )( + T2 37 ) ) )
(or ( <= ( + T2 137 )  ( + T6 119 ) ) ( <= ( + T6 218 )( + T2 136 ) ) )
(or ( <= ( + T2 174 )  ( + T6 218 ) ) ( <= ( + T6 282 )( + T2 137 ) ) )
(or ( <= ( + T3 62 ) T4 ) ( <= ( + T4 90 ) T3 ) )
(or ( <= ( + T3 68 )  ( + T4 90 ) ) ( <= ( + T4 140 )( + T3 62 ) ) )
(or ( <= ( + T3 104 )  ( + T4 140 ) ) ( <= ( + T4 223 )( + T3 68 ) ) )
(or ( <= ( + T3 164 )  ( + T4 223 ) ) ( <= ( + T4 295 )( + T3 104 ) ) )
(or ( <= ( + T3 62 ) T5 ) ( <= ( + T5 41 ) T3 ) )
(or ( <= ( + T3 68 )  ( + T5 41 ) ) ( <= ( + T5 125 )( + T3 62 ) ) )
(or ( <= ( + T3 104 )  ( + T5 125 ) ) ( <= ( + T5 189 )( + T3 68 ) ) )
(or ( <= ( + T3 164 )  ( + T5 189 ) ) ( <= ( + T5 261 )( + T3 104 ) ) )
(or ( <= ( + T3 62 ) T6 ) ( <= ( + T6 28 ) T3 ) )
(or ( <= ( + T3 68 )  ( + T6 28 ) ) ( <= ( + T6 119 )( + T3 62 ) ) )
(or ( <= ( + T3 104 )  ( + T6 119 ) ) ( <= ( + T6 218 )( + T3 68 ) ) )
(or ( <= ( + T3 164 )  ( + T6 218 ) ) ( <= ( + T6 282 )( + T3 104 ) ) )
(or ( <= ( + T4 90 ) T5 ) ( <= ( + T5 41 ) T4 ) )
(or ( <= ( + T4 140 )  ( + T5 41 ) ) ( <= ( + T5 125 )( + T4 90 ) ) )
(or ( <= ( + T4 223 )  ( + T5 125 ) ) ( <= ( + T5 189 )( + T4 140 ) ) )
(or ( <= ( + T4 295 )  ( + T5 189 ) ) ( <= ( + T5 261 )( + T4 223 ) ) )
(or ( <= ( + T4 90 ) T6 ) ( <= ( + T6 28 ) T4 ) )
(or ( <= ( + T4 140 )  ( + T6 28 ) ) ( <= ( + T6 119 )( + T4 90 ) ) )
(or ( <= ( + T4 223 )  ( + T6 119 ) ) ( <= ( + T6 218 )( + T4 140 ) ) )
(or ( <= ( + T4 295 )  ( + T6 218 ) ) ( <= ( + T6 282 )( + T4 223 ) ) )
(or ( <= ( + T5 41 ) T6 ) ( <= ( + T6 28 ) T5 ) )
(or ( <= ( + T5 125 )  ( + T6 28 ) ) ( <= ( + T6 119 )( + T5 41 ) ) )
(or ( <= ( + T5 189 )  ( + T6 119 ) ) ( <= ( + T6 218 )( + T5 125 ) ) )
(or ( <= ( + T5 261 )  ( + T6 218 ) ) ( <= ( + T6 282 )( + T5 189 ) ) )
( <= ( + T1 146 ) Z)
( <= ( + T2 174 ) Z)
( <= ( + T3 164 ) Z)
( <= ( + T4 295 ) Z)
( <= ( + T5 261 ) Z)
( <= ( + T6 282 ) Z)
( >= T1 0 )
( >= T2 0 )
( >= T3 0 )
( >= T4 0 )
( >= T5 0 )
( >= T6 0 )
) )
)(=> $phi $goal))))